;; Preprocessed for Astral solver
(set-info :status sat)
;; variables
(declare-const x0 Loc)
(declare-const x1 Loc)
(declare-const x2 Loc)
(declare-const x3 Loc)
(declare-const x4 Loc)
(declare-const x5 Loc)
(declare-const x6 Loc)
(declare-const x7 Loc)
(declare-const x8 Loc)
(declare-const x9 Loc)
(declare-const x10 Loc)
(declare-const x11 Loc)
(declare-const x12 Loc)
(declare-const x13 Loc)
(declare-const x14 Loc)
(declare-const x15 Loc)
(declare-const x16 Loc)
(declare-const x17 Loc)
(declare-const x18 Loc)
(declare-const x19 Loc)
(declare-const x20 Loc)
(declare-const x21 Loc)
(declare-const x22 Loc)
(declare-const x23 Loc)
(declare-const x24 Loc)

(assert 
		(sep 
			(= nil nil)
		(sep 
			(pto x6 x12)
			(ls x15 x7 )
			(ls x10 x1 )
			(pto x14 x7)
			(pto x2 x1)
			(ls x12 x7 )
			(pto x9 x19)
			(pto x13 x11)
			(pto x8 x17)
			(pto x16 x1)
			(pto x1 x18)
			(pto x4 x19)
			(pto x17 x11)
			(pto x3 x12)
			(pto x18 x4)
			(ls x20 x12 )
			(pto x5 x17)
			(pto x11 x6)
			(pto x19 x1)
			(ls x7 x12 )
		)

		)

)

(assert (not 
		(sep 
			(ls x15 x7 )
			(ls x3 x12 )
			(ls x8 x17 )
			(ls x14 x7 )
			(ls x5 x17 )
			(ls x7 x12 )
			(ls x10 x1 )
			(ls x16 x1 )
			(ls x20 x12 )
			(ls x13 x11 )
			(ls x17 x11 )
			(ls x9 x1 )
			(ls x11 x7 )
			(ls x2 x19 )
		)

))

(check-sat)
